db/data/119272957724768311076737239191737619454.z3.out
-------------------
2500.196940458
